0 4
0 9
0 13
0 21
0 31
1 14
1 22
2 21
2 27
3 4
3 24
4 20
4 29
5 16
5 19
5 24
5 26
6 9
6 11
6 12
6 27
6 31
7 8
7 24
7 26
8 12
8 24
9 11
9 12
9 22
10 13
10 15
10 22
10 27
10 29
11 16
11 18
11 22
11 24
11 27
11 30
12 22
12 31
13 16
14 17
15 26
15 28
16 27
16 29
18 19
18 26
18 30
18 31
19 30
20 24
23 28
23 29
26 30
28 29
